h 1 0
h 2 0
h -3 2 0
h 4 0
h -5 6 7 0
h -6 -2 -5 0
h 6 5 0
h -2 5 -6 0
1698901850534264111 -7 0
h -1 8 9 0
867299253504144725 -10 0
1514767909994264689 -11 0
h 8 -3 -5 0
h -8 12 0
h 5 3 0
3171659748486128084 -12 0
h 13 -8 0
4547475152370304090 -13 0
22932547402756299 -14 0
3425840767901666799 -15 0
h -3 16 -9 -4 0
3197866843516022818 -16 0
